# Solution for model r5_t36_m7_5 Batch Number: 4
# Finished Task: 31 / 36
# Makespan: 943.0, Total Distance: 762.0, Total Time: 9.6723
# R O S F Batch
0 0 5 0.0 0.0 -1
1 1 29 0.0 0.0 -1
2 2 12 0.0 0.0 -1
3 3 31 0.0 0.0 -1
4 4 34 0.0 0.0 -1
5 0 14 268.0 298.0 0
6 2 36 560.0 595.0 0
7 -1 -1 -1.0 -1.0 2
8 0 18 479.0 509.0 0
9 4 20 482.0 508.0 0
10 0 23 628.0 651.0 0
11 2 6 374.0 407.0 0
12 2 11 217.0 256.0 0
13 0 27 734.0 773.0 1
14 0 16 331.0 359.0 0
15 0 -1 854.0 883.0 2
16 0 8 369.0 396.0 0
17 3 -1 669.0 705.0 0
18 0 10 547.0 575.0 0
19 -1 -1 -1.0 -1.0 2
20 4 22 516.0 543.0 0
21 -1 -1 -1.0 -1.0 3
22 4 24 617.0 653.0 0
23 0 13 675.0 705.0 0
24 4 25 679.0 705.0 0
25 4 37 722.0 743.0 2
26 2 -1 912.0 943.0 3
27 0 15 797.0 817.0 2
28 1 39 792.0 815.0 3
29 1 28 673.0 705.0 0
30 -1 -1 -1.0 -1.0 3
31 3 17 630.0 669.0 0
32 2 26 705.0 732.0 2
33 -1 -1 -1.0 -1.0 3
34 4 9 411.0 441.0 0
35 1 -1 913.0 943.0 3
36 2 32 646.0 666.0 0
37 4 40 762.0 790.0 2
38 1 35 872.0 899.0 3
39 1 38 832.0 860.0 3
40 4 -1 813.0 849.0 2
